; benchmark generated from python API
(set-info :status unknown)
(declare-fun R_E1_V4 () Bool)
(declare-fun W_S1_V4 () Bool)
(declare-fun R_E1_V5 () Bool)
(declare-fun W_S1_V5 () Bool)
(declare-fun W_S2_V5 () Bool)
(declare-fun W_S2_V2 () Bool)
(declare-fun W_S2_V3 () Bool)
(declare-fun W_S2_V1 () Bool)
(declare-fun R_S2_V4 () Bool)
(declare-fun R_S2_V5 () Bool)
(declare-fun R_S2_V2 () Bool)
(declare-fun R_S2_V3 () Bool)
(declare-fun R_S2_V1 () Bool)
(declare-fun R_S1_V1 () Bool)
(declare-fun R_S1_V4 () Bool)
(declare-fun R_S1_V5 () Bool)
(declare-fun R_S1_V2 () Bool)
(declare-fun R_S1_V3 () Bool)
(declare-fun R_E1_V2 () Bool)
(declare-fun DISJ_W_S2_R_E1 () Bool)
(declare-fun DISJ_W_S2_R_S2 () Bool)
(declare-fun DISJ_W_S2_R_S1 () Bool)
(declare-fun DISJ_W_S1_W_S2 () Bool)
(declare-fun R_E1_V3 () Bool)
(declare-fun DISJ_W_S1_R_S2 () Bool)
(declare-fun DISJ_W_S1_R_S1 () Bool)
(declare-fun W_S2_V4 () Bool)
(declare-fun W_S1_V3 () Bool)
(declare-fun W_S1_V2 () Bool)
(declare-fun W_S1_V1 () Bool)
(declare-fun R_E1_V1 () Bool)
(declare-fun DISJ_W_S1_R_E1 () Bool)
(assert
 (let (($x2202 (not (and W_S1_V4 R_E1_V4))))
 (let (($x1760 (not (and W_S1_V5 R_E1_V5))))
 (let (($x2363 (forall ((V3_0 Int) )(forall ((V2_0 Int) )(forall ((V5_0 Int) )(forall ((V4_0 Int) )(forall ((MW_S1_V1 Bool) )(forall ((MW_S1_V3 Bool) )(forall ((MW_S1_V2 Bool) )(forall ((MW_S1_V5 Bool) )(forall ((MW_S1_V4 Bool) )(forall ((MW_S2_V1 Bool) )(forall ((MW_S2_V3 Bool) )(forall ((MW_S2_V2 Bool) )(forall ((MW_S2_V5 Bool) )(forall ((MW_S2_V4 Bool) )(forall ((S1_V1_!1516 Int) )(forall ((S1_V1_!1521 Int) )(forall ((S1_V1_!1533 Int) )(forall ((S2_V5_!1530 Int) )(forall ((S2_V5_!1541 Int) )(forall ((S1_V3_!1517 Int) )(forall ((S1_V3_!1522 Int) )(forall ((S1_V3_!1534 Int) )(forall ((S1_V2_!1518 Int) )(forall ((S1_V2_!1523 Int) )(forall ((S1_V2_!1535 Int) )(forall ((E1_!1515 Int) )(forall ((E1_!1526 Int) )(forall ((E1_!1532 Int) )(forall ((S2_V4_!1531 Int) )(forall ((S2_V4_!1542 Int) )(forall ((S1_V5_!1519 Int) )(forall ((S1_V5_!1524 Int) )(forall ((S1_V5_!1536 Int) )(forall ((S2_V1_!1527 Int) )(forall ((S2_V1_!1538 Int) )(forall ((S1_V4_!1520 Int) )(forall ((S1_V4_!1525 Int) )(forall ((S1_V4_!1537 Int) )(forall ((S2_V2_!1529 Int) )(forall ((S2_V2_!1540 Int) )(forall ((S2_V3_!1528 Int) )(forall ((S2_V3_!1539 Int) )(let (($x1950 (= (ite MW_S2_V4 S2_V4_!1531 (ite MW_S1_V4 S1_V4_!1525 V4_0)) (ite MW_S2_V4 S2_V4_!1542 (ite MW_S1_V4 S1_V4_!1537 V4_0)))))
 (let (($x248 (= (ite MW_S2_V5 S2_V5_!1530 (ite MW_S1_V5 S1_V5_!1524 V5_0)) (ite MW_S2_V5 S2_V5_!1541 (ite MW_S1_V5 S1_V5_!1536 V5_0)))))
 (let ((?x1931 (ite MW_S1_V2 S1_V2_!1535 V2_0)))
 (let ((?x1963 (ite MW_S2_V2 S2_V2_!1540 ?x1931)))
 (let ((?x2296 (ite MW_S1_V2 S1_V2_!1523 V2_0)))
 (let ((?x3924 (ite MW_S2_V2 S2_V2_!1529 ?x2296)))
 (let (($x3541 (= (ite MW_S2_V3 S2_V3_!1528 (ite MW_S1_V3 S1_V3_!1522 V3_0)) (ite MW_S2_V3 S2_V3_!1539 (ite MW_S1_V3 S1_V3_!1534 V3_0)))))
 (let (($x518 (and (= (ite MW_S2_V1 S2_V1_!1527 E1_!1526) (ite MW_S2_V1 S2_V1_!1538 (ite MW_S1_V1 S1_V1_!1533 E1_!1532))) $x3541 (= ?x3924 ?x1963) $x248 $x1950)))
 (let (($x454 (>= (ite MW_S1_V1 S1_V1_!1521 (+ 1 (ite MW_S1_V1 S1_V1_!1516 E1_!1515))) (+ (- 1) ?x2296))))
 (let (($x1343 (and (not (<= V2_0 E1_!1515)) (not (<= (ite MW_S1_V2 S1_V2_!1518 V2_0) (+ 1 (ite MW_S1_V1 S1_V1_!1516 E1_!1515)))) $x454 (not (<= ?x2296 E1_!1526)) (>= (ite MW_S2_V1 S2_V1_!1527 E1_!1526) (+ (- 1) ?x3924)) (not (<= V2_0 E1_!1532)) (>= (ite MW_S2_V1 S2_V1_!1538 (ite MW_S1_V1 S1_V1_!1533 E1_!1532)) (+ (- 1) ?x1963)))))
 (let (($x2826 (= S2_V3_!1528 S2_V3_!1539)))
 (let (($x977 (and (or (not R_S2_V1) (= E1_!1526 (ite MW_S1_V1 S1_V1_!1533 E1_!1532))) (or (not R_S2_V3) (= (ite MW_S1_V3 S1_V3_!1522 V3_0) (ite MW_S1_V3 S1_V3_!1534 V3_0))) (or (not R_S2_V2) (= ?x2296 ?x1931)) (or (not R_S2_V5) (= (ite MW_S1_V5 S1_V5_!1524 V5_0) (ite MW_S1_V5 S1_V5_!1536 V5_0))) (or (not R_S2_V4) (= (ite MW_S1_V4 S1_V4_!1525 V4_0) (ite MW_S1_V4 S1_V4_!1537 V4_0))))))
 (let (($x1096 (not $x977)))
 (let (($x5764 (not R_S1_V4)))
 (let (($x5705 (or $x5764 (= (ite MW_S1_V4 S1_V4_!1520 V4_0) V4_0))))
 (let (($x2008 (not R_S1_V5)))
 (let (($x4233 (or $x2008 (= (ite MW_S1_V5 S1_V5_!1519 V5_0) V5_0))))
 (let (($x2049 (not R_S1_V2)))
 (let (($x4292 (or $x2049 (= (ite MW_S1_V2 S1_V2_!1518 V2_0) V2_0))))
 (let (($x3483 (not R_S1_V3)))
 (let (($x5815 (or $x3483 (= (ite MW_S1_V3 S1_V3_!1517 V3_0) V3_0))))
 (let (($x1583 (and (or (not R_S1_V1) (= (ite MW_S1_V1 S1_V1_!1516 E1_!1515) (+ (- 1) E1_!1532))) $x5815 $x4292 $x4233 $x5705)))
 (let (($x1519 (and (or (not R_S1_V1) (= (ite MW_S1_V1 S1_V1_!1516 E1_!1515) (+ (- 1) E1_!1515))) $x5815 $x4292 $x4233 $x5705)))
 (let (($x4649 (or $x5764 (= V4_0 (ite MW_S1_V4 S1_V4_!1520 V4_0)))))
 (let (($x2621 (or $x2008 (= V5_0 (ite MW_S1_V5 S1_V5_!1519 V5_0)))))
 (let (($x1451 (or $x2049 (= V2_0 (ite MW_S1_V2 S1_V2_!1518 V2_0)))))
 (let (($x5869 (or $x3483 (= V3_0 (ite MW_S1_V3 S1_V3_!1517 V3_0)))))
 (let (($x1742 (and (or (not R_S1_V1) (= E1_!1532 (+ 1 (ite MW_S1_V1 S1_V1_!1516 E1_!1515)))) $x5869 $x1451 $x2621 $x4649)))
 (let (($x3750 (not $x1742)))
 (let (($x2228 (and (or (not R_S1_V1) (= E1_!1515 (+ 1 (ite MW_S1_V1 S1_V1_!1516 E1_!1515)))) $x5869 $x1451 $x2621 $x4649)))
 (let (($x1690 (not $x2228)))
 (let (($x1691 (= S2_V4_!1542 S2_V4_!1531)))
 (let (($x34 (and (or (not R_S2_V1) (= (ite MW_S1_V1 S1_V1_!1533 E1_!1532) E1_!1526)) (or (not R_S2_V3) (= (ite MW_S1_V3 S1_V3_!1534 V3_0) (ite MW_S1_V3 S1_V3_!1522 V3_0))) (or (not R_S2_V2) (= ?x1931 ?x2296)) (or (not R_S2_V5) (= (ite MW_S1_V5 S1_V5_!1536 V5_0) (ite MW_S1_V5 S1_V5_!1524 V5_0))) (or (not R_S2_V4) (= (ite MW_S1_V4 S1_V4_!1537 V4_0) (ite MW_S1_V4 S1_V4_!1525 V4_0))))))
 (let (($x5961 (= E1_!1532 E1_!1515)))
 (let (($x1861 (= E1_!1526 E1_!1532)))
 (let (($x3735 (and (or (not R_E1_V2) (= ?x2296 V2_0)) (or (not R_E1_V5) (= (ite MW_S1_V5 S1_V5_!1524 V5_0) V5_0)) (or (not R_E1_V4) (= (ite MW_S1_V4 S1_V4_!1525 V4_0) V4_0)))))
 (let (($x1191 (not $x3735)))
 (let (($x2486 (and (or $x1690 (= S1_V1_!1516 S1_V1_!1521)) (or (not (or (not R_S1_V1) (= E1_!1515 E1_!1532))) (= S1_V1_!1516 S1_V1_!1533)) (or $x3750 (= S1_V1_!1533 S1_V1_!1521)) (or $x1096 (= S2_V5_!1530 S2_V5_!1541)) (or $x1690 (= S1_V3_!1517 S1_V3_!1522)) (or (not (or (not R_S1_V1) (= E1_!1515 E1_!1532))) (= S1_V3_!1517 S1_V3_!1534)) (or $x3750 (= S1_V3_!1534 S1_V3_!1522)) (or $x1690 (= S1_V2_!1518 S1_V2_!1523)) (or (not (or (not R_S1_V1) $x5961)) (= S1_V2_!1535 S1_V2_!1518)) (or $x3750 (= S1_V2_!1535 S1_V2_!1523)) (or $x1191 (= E1_!1526 E1_!1515)) (or $x1191 $x1861) $x5961 (or (not $x34) $x1691) (or $x1690 (= S1_V5_!1519 S1_V5_!1524)) (or (not (or (not R_S1_V1) $x5961)) (= S1_V5_!1536 S1_V5_!1519)) (or $x3750 (= S1_V5_!1536 S1_V5_!1524)) (or $x1096 (= S2_V1_!1527 S2_V1_!1538)) (or (not $x1519) (= S1_V4_!1525 S1_V4_!1520)) (or (not $x1583) (= S1_V4_!1525 S1_V4_!1537)) (or (not (or (not R_S1_V1) $x5961)) (= S1_V4_!1537 S1_V4_!1520)) (or $x1096 (= S2_V2_!1529 S2_V2_!1540)) (or $x1096 $x2826) (not MW_S1_V1) (not MW_S1_V2) (or (not MW_S1_V5) W_S1_V5) (or (not MW_S1_V4) W_S1_V4) (or (not MW_S2_V1) W_S2_V1) (or (not MW_S2_V3) W_S2_V3) (or (not MW_S2_V2) W_S2_V2) (or (not MW_S2_V5) W_S2_V5))))
 (or (not $x2486) (not $x1343) $x518))))))))))))))))))))))))))))))))))))))))
 )
 )
 )
 )
 )
 )
 )
 )
 )
 )
 )
 )
 )
 )
 )
 )
 )
 )
 )
 )
 )
 )
 )
 )
 )
 )
 )
 )
 )
 )
 )
 )
 )
 )
 )
 )
 )
 )
 )
 )
 )
 ))
 (let (($x2830 (not (or (and W_S2_V2 R_E1_V2) (and W_S2_V5 R_E1_V5) R_E1_V4))))
 (let (($x5929 (= DISJ_W_S2_R_E1 $x2830)))
 (let (($x2775 (and W_S2_V5 R_S2_V5)))
 (let (($x4865 (and W_S2_V2 R_S2_V2)))
 (let (($x2150 (and W_S2_V3 R_S2_V3)))
 (let (($x5317 (and W_S2_V1 R_S2_V1)))
 (let (($x5411 (= DISJ_W_S2_R_S2 (not (or $x5317 $x2150 $x4865 $x2775 R_S2_V4)))))
 (let (($x424 (and W_S2_V5 R_S1_V5)))
 (let (($x2649 (and W_S2_V2 R_S1_V2)))
 (let (($x2146 (and W_S2_V3 R_S1_V3)))
 (let (($x1506 (and W_S2_V1 R_S1_V1)))
 (let (($x776 (= DISJ_W_S2_R_S1 (not (or $x1506 $x2146 $x2649 $x424 R_S1_V4)))))
 (let (($x3340 (= DISJ_W_S1_W_S2 (not (or W_S2_V3 (and W_S1_V5 W_S2_V5) W_S1_V4)))))
 (let (($x6077 (not R_E1_V3)))
 (let (($x878 (or R_S2_V3 (and W_S1_V5 R_S2_V5) (and W_S1_V4 R_S2_V4))))
 (let (($x2134 (= DISJ_W_S1_R_S2 (not $x878))))
 (let (($x5389 (not (or R_S1_V3 (and W_S1_V5 R_S1_V5) (and W_S1_V4 R_S1_V4)))))
 (let (($x275 (= DISJ_W_S1_R_S1 $x5389)))
 (let (($x3918 (not W_S1_V2)))
 (let (($x1890 (not W_S1_V1)))
 (let (($x786 (not R_E1_V1)))
 (and DISJ_W_S1_R_E1 $x786 $x1890 $x3918 W_S1_V3 W_S2_V4 $x275 $x2134 $x6077 $x3340 $x776 $x5411 $x5929 $x2363 $x1760 $x2202))))))))))))))))))))))))))
(check-sat)
